x =  85;
y =  50;
c = 140;

n =  27;

// Let's index products with letters: A, B, C, ...

//     B   A   C   D   E   F   H   G   I   K   J   L   M   N   O   P   Q   R   S   T   U   V   W   X   Y   Z   [
p = [  8   2   4   4   4   2   8   1   8   6   9   2   2   1   5   1   6   1   3   5   8   8   4   1   7   6   6  ];
w = [  6   8   7   8   5   9   6   8   6   7   5   8   3   4   7   8   6   5   6   5   3   4   6   2   7   5   5  ];
s = [  29   29   29   27   23   4   21   21   21   16   16   4   4   4   4   5   5   5   1   1   1   3   1   1   1   1   1  ];